(set-logic QF_S)
(declare-fun var0 () String)
(declare-fun var1 () String)
(declare-fun var2 () String)
(declare-fun var3 () Int)
(declare-fun var4 () Int)
(declare-fun var5 () Int)
(declare-fun var6 () Bool)
(declare-fun var7 () Bool)
(declare-fun var8 () Bool)
(assert (< (str.indexof var0 "q=>m*%OHJy" var4) (str.indexof var1 var0 var5)))
(assert (>= var5 var3))
(assert (<= var5 5))
(assert (str.contains (str.substr var0 var3 var5) (str.replace var2 var0 var1)))
(check-sat)